(set-info :smt-lib-version 2.6)
(set-info :category "crafted")
(set-logic QF_FF)
(define-sort FF0 () (_ FiniteField 52435875175126190479447740508185965837690552500527637822603658699938581184513))
(declare-fun h () Bool)
(declare-fun e () Bool)
(declare-fun d () Bool)
(declare-fun b () Bool)
(declare-fun a () Bool)
(declare-fun g () Bool)
(declare-fun f () Bool)
(declare-fun c () Bool)
(declare-fun return_n6 () FF0)
(declare-fun is_zero_n76 () FF0)
(declare-fun mul_n12 () FF0)
(declare-fun is_zero_n66 () FF0)
(declare-fun g_n8 () FF0)
(declare-fun mul_n62 () FF0)
(declare-fun mul_n14 () FF0)
(declare-fun is_zero_n58 () FF0)
(declare-fun is_zero_n68 () FF0)
(declare-fun mul_n61 () FF0)
(declare-fun mul_n74 () FF0)
(declare-fun mul_n13 () FF0)
(declare-fun is_zero_inv_n77 () FF0)
(declare-fun mul_n70 () FF0)
(declare-fun mul_n47 () FF0)
(declare-fun mul_n15 () FF0)
(declare-fun mul_n50 () FF0)
(declare-fun mul_n53 () FF0)
(declare-fun mul_n56 () FF0)
(declare-fun b_n7 () FF0)
(declare-fun mul_n36 () FF0)
(declare-fun is_zero_n42 () FF0)
(declare-fun mul_n54 () FF0)
(declare-fun is_zero_n60 () FF0)
(declare-fun mul_n69 () FF0)
(declare-fun mul_n40 () FF0)
(declare-fun mul_n49 () FF0)
(declare-fun mul_n20 () FF0)
(declare-fun is_zero_n52 () FF0)
(declare-fun mul_n55 () FF0)
(declare-fun is_zero_n64 () FF0)
(declare-fun is_zero_inv_n75 () FF0)
(declare-fun f_n1 () FF0)
(declare-fun mul_n21 () FF0)
(declare-fun mul_n73 () FF0)
(declare-fun is_zero_n72 () FF0)
(declare-fun mul_n44 () FF0)
(declare-fun mul_n31 () FF0)
(declare-fun e_n2 () FF0)
(declare-fun mul_n30 () FF0)
(declare-fun is_zero_n23 () FF0)
(declare-fun mul_n29 () FF0)
(declare-fun is_zero_inv_n71 () FF0)
(declare-fun d_n3 () FF0)
(declare-fun mul_n33 () FF0)
(declare-fun mul_n10 () FF0)
(declare-fun mul_n48 () FF0)
(declare-fun is_zero_inv_n67 () FF0)
(declare-fun mul_n27 () FF0)
(declare-fun is_zero_inv_n65 () FF0)
(declare-fun mul_n35 () FF0)
(declare-fun mul_n9 () FF0)
(declare-fun mul_n46 () FF0)
(declare-fun is_zero_n26 () FF0)
(declare-fun mul_n32 () FF0)
(declare-fun is_zero_inv_n63 () FF0)
(declare-fun a_n0 () FF0)
(declare-fun mul_n11 () FF0)
(declare-fun is_zero_inv_n59 () FF0)
(declare-fun is_zero_inv_n57 () FF0)
(declare-fun mul_n24 () FF0)
(declare-fun mul_n45 () FF0)
(declare-fun is_zero_inv_n51 () FF0)
(declare-fun h_n5 () FF0)
(declare-fun is_zero_n19 () FF0)
(declare-fun mul_n43 () FF0)
(declare-fun is_zero_n38 () FF0)
(declare-fun mul_n28 () FF0)
(declare-fun is_zero_inv_n41 () FF0)
(declare-fun is_zero_n17 () FF0)
(declare-fun mul_n39 () FF0)
(declare-fun is_zero_inv_n37 () FF0)
(declare-fun c_n4 () FF0)
(declare-fun mul_n34 () FF0)
(declare-fun is_zero_inv_n25 () FF0)
(declare-fun is_zero_inv_n22 () FF0)
(declare-fun is_zero_inv_n18 () FF0)
(declare-fun is_zero_inv_n16 () FF0)
(assert 
  (let ((let0 h))
  (let ((let1 e))
  (let ((let2 d))
  (let ((let3 (ite let0 let2 let1)))
  (let ((let4 (and let3 let0)))
  (let ((let5 b))
  (let ((let6 a))
  (let ((let7 (=> let6 let5)))
  (let ((let8 (or let6 let7)))
  (let ((let9 g))
  (let ((let10 f))
  (let ((let11 c))
  (let ((let12 (ite let11 let10 let9)))
  (let ((let13 (= let12 let8)))
  (let ((let14 (ite let12 let1 let13)))
  (let ((let15 (and let1 let7 let11 let14)))
  (let ((let16 (not let2)))
  (let ((let17 (or let4 let16 let15 let4)))
  (let ((let18 (not let14)))
  (let ((let19 (= let13 let18)))
  (let ((let20 (= let10 let5)))
  (let ((let21 (and let19 let20 let8 let7 let19)))
  (let ((let22 (and let21 let15)))
  (let ((let23 (or let0 let18 let14 let9)))
  (let ((let24 (or let23 let3)))
  (let ((let25 (ite let22 let24 let22)))
  (let ((let26 (and let11 let2)))
  (let ((let27 (= let26 let26)))
  (let ((let28 (= let27 let5)))
  (let ((let29 (ite let16 let28 let9)))
  (let ((let30 (ite let12 let23 let27)))
  (let ((let31 (or let26 let30 let11)))
  (let ((let32 (=> let20 let31)))
  (let ((let33 (or let32 let25 let25 let28)))
  (let ((let34 (and let3 let24 let15)))
  (let ((let35 (and let34 let33 let29 let25 let2)))
  (let ((let36 (or let9 let35 let17)))
  (let ((let37 (=> let22 let17)))
  (let ((let38 (ite let30 let17 let23)))
  (let ((let39 (ite let34 let38 let5)))
  (let ((let40 (or let30 let8)))
  (let ((let41 (ite let40 let0 let39)))
  (let ((let42 (= let32 let41)))
  (let ((let43 (and let42 let10 let37 let22 let37 let36)))
  (let ((let44 (=> let41 let27)))
  (let ((let45 (=> let20 let44)))
  (let ((let46 (not let42)))
  (let ((let47 (=> let38 let39)))
  (let ((let48 (= let47 let42)))
  (let ((let49 (or let41 let35 let48 let46 let45 let43)))
  (let ((let50 (not let49)))
  (let ((let51 (or let6 let21 let29 let7)))
  (let ((let52 (or let51 let13)))
  (let ((let53 (and let6 let12)))
  (let ((let54 (and let31 let31 let3 let36 let38 let23 let29 let10 let47)))
  (let ((let55 (not let4)))
  (let ((let56 (and let18 let24 let40 let32)))
  (let ((let57 (or let55 let40 let51 let56 let16 let42 let30 let55)))
  (let ((let58 (not let57)))
  (let ((let59 (ite let58 let14 let43)))
  (let ((let60 (not let59)))
  (let ((let61 (= let44 let58)))
  (let ((let62 (or let36 let21 let28 let1 let28)))
  (let ((let63 (and let62 let43)))
  (let ((let64 (=> let63 let20)))
  (let ((let65 (or let64 let61 let58 let34 let60 let54 let19 let35 let45 let54 let48 let49 let14 let51)))
  (let ((let66 (not let64)))
  (let ((let67 (not let13)))
  (let ((let68 (not let56)))
  (let ((let69 (and let68 let67 let66 let58 let65 let53 let52 let50 let50)))
  (let ((let70 return_n6))
  (let ((let71 (as ff1 FF0)))
  (let ((let72 (= let71 let70)))
  (let ((let73 (= let72 let69)))
  (let ((let74 (as ff0 FF0)))
  (let ((let75 (= let74 let70)))
  (let ((let76 (or let72 let75)))
  (let ((let77 (and let76 let73)))
  (let ((let78 (as ff5 FF0)))
  (let ((let79 is_zero_n76))
  (let ((let80 mul_n12))
  (let ((let81 is_zero_n66))
  (let ((let82 (as ff52435875175126190479447740508185965837690552500527637822603658699938581184512 FF0)))
  (let ((let83 g_n8))
  (let ((let84 (ff.mul let83 let82)))
  (let ((let85 mul_n62))
  (let ((let86 (ff.mul let85 let82)))
  (let ((let87 mul_n14))
  (let ((let88 (as ff52435875175126190479447740508185965837690552500527637822603658699938581184511 FF0)))
  (let ((let89 is_zero_n58))
  (let ((let90 (ff.mul let89 let88)))
  (let ((let91 is_zero_n68))
  (let ((let92 (ff.mul let91 let82)))
  (let ((let93 mul_n61))
  (let ((let94 mul_n74))
  (let ((let95 (ff.mul let94 let82)))
  (let ((let96 mul_n13))
  (let ((let97 (ff.mul let96 let82)))
  (let ((let98 (ff.add let97 let95 let93 let92 let90 let87 let86 let84 let81 let80 let79 let78)))
  (let ((let99 (ff.mul let70 let98)))
  (let ((let100 (= let99 let74)))
  (let ((let101 (ff.mul let70 let82)))
  (let ((let102 (ff.add let101 let71)))
  (let ((let103 is_zero_inv_n77))
  (let ((let104 (ff.mul let103 let98)))
  (let ((let105 (= let104 let102)))
  (let ((let106 mul_n70))
  (let ((let107 mul_n47))
  (let ((let108 (as ff2 FF0)))
  (let ((let109 mul_n15))
  (let ((let110 (ff.mul let109 let108)))
  (let ((let111 mul_n50))
  (let ((let112 (ff.mul let111 let82)))
  (let ((let113 mul_n53))
  (let ((let114 mul_n56))
  (let ((let115 b_n7))
  (let ((let116 mul_n36))
  (let ((let117 (ff.mul let116 let82)))
  (let ((let118 is_zero_n42))
  (let ((let119 mul_n54))
  (let ((let120 (ff.mul let119 let82)))
  (let ((let121 is_zero_n60))
  (let ((let122 (ff.mul let121 let82)))
  (let ((let123 mul_n69))
  (let ((let124 (ff.mul let123 let82)))
  (let ((let125 mul_n40))
  (let ((let126 mul_n49))
  (let ((let127 mul_n20))
  (let ((let128 is_zero_n52))
  (let ((let129 (ff.mul let128 let82)))
  (let ((let130 mul_n55))
  (let ((let131 (ff.mul let89 let82)))
  (let ((let132 is_zero_n64))
  (let ((let133 (ff.mul let132 let108)))
  (let ((let134 (ff.add let133 let131 let130 let129 let127 let126 let87 let125 let124 let84 let122 let120 let97 let95 let118 let117 let115 let114 let113 let112 let110 let107 let80 let106 let78)))
  (let ((let135 (ff.mul let79 let134)))
  (let ((let136 (= let135 let74)))
  (let ((let137 (ff.mul let79 let82)))
  (let ((let138 (ff.add let137 let71)))
  (let ((let139 is_zero_inv_n75))
  (let ((let140 (ff.mul let139 let134)))
  (let ((let141 (= let140 let138)))
  (let ((let142 f_n1))
  (let ((let143 mul_n21))
  (let ((let144 (ff.mul let143 let82)))
  (let ((let145 (ff.add let144 let142 let115)))
  (let ((let146 mul_n73))
  (let ((let147 (ff.mul let146 let145)))
  (let ((let148 (= let147 let94)))
  (let ((let149 is_zero_n72))
  (let ((let150 (ff.mul let149 let82)))
  (let ((let151 (ff.add let150 let71)))
  (let ((let152 (ff.mul let151 let128)))
  (let ((let153 (= let152 let146)))
  (let ((let154 mul_n44))
  (let ((let155 (ff.mul let154 let82)))
  (let ((let156 mul_n31))
  (let ((let157 (ff.mul let156 let108)))
  (let ((let158 e_n2))
  (let ((let159 mul_n30))
  (let ((let160 (ff.mul let159 let88)))
  (let ((let161 (ff.mul let115 let88)))
  (let ((let162 is_zero_n23))
  (let ((let163 (as ff4 FF0)))
  (let ((let164 mul_n29))
  (let ((let165 (ff.mul let164 let163)))
  (let ((let166 (ff.add let165 let162 let161 let160 let158 let157 let155 let71)))
  (let ((let167 (ff.mul let149 let166)))
  (let ((let168 (= let167 let74)))
  (let ((let169 is_zero_inv_n71))
  (let ((let170 (ff.mul let169 let166)))
  (let ((let171 (= let170 let151)))
  (let ((let172 (ff.mul let113 let88)))
  (let ((let173 (ff.add let172 let108)))
  (let ((let174 (ff.mul let173 let91)))
  (let ((let175 (= let174 let106)))
  (let ((let176 (ff.add let84 let97 let109 let80 let129 let87)))
  (let ((let177 (ff.mul let91 let176)))
  (let ((let178 (= let177 let123)))
  (let ((let179 (as ff6 FF0)))
  (let ((let180 d_n3))
  (let ((let181 (ff.mul let180 let82)))
  (let ((let182 (ff.mul let107 let82)))
  (let ((let183 mul_n33))
  (let ((let184 (ff.mul let126 let82)))
  (let ((let185 (ff.mul let115 let82)))
  (let ((let186 mul_n10))
  (let ((let187 (ff.mul let186 let88)))
  (let ((let188 (ff.mul let164 let88)))
  (let ((let189 mul_n48))
  (let ((let190 (ff.mul let189 let82)))
  (let ((let191 (ff.add let190 let188 let187 let185 let116 let184 let183 let159 let81 let111 let122 let182 let181 let179)))
  (let ((let192 (ff.mul let91 let191)))
  (let ((let193 (= let192 let74)))
  (let ((let194 (ff.add let92 let71)))
  (let ((let195 is_zero_inv_n67))
  (let ((let196 (ff.mul let195 let191)))
  (let ((let197 (= let196 let194)))
  (let ((let198 mul_n27))
  (let ((let199 (ff.add let189 let97 let116 let87 let198 let84 let109 let80)))
  (let ((let200 (ff.mul let81 let199)))
  (let ((let201 (= let200 let74)))
  (let ((let202 (ff.mul let81 let82)))
  (let ((let203 (ff.add let202 let71)))
  (let ((let204 is_zero_inv_n65))
  (let ((let205 (ff.mul let204 let199)))
  (let ((let206 (= let205 let203)))
  (let ((let207 (as ff3 FF0)))
  (let ((let208 mul_n35))
  (let ((let209 (ff.mul let208 let108)))
  (let ((let210 mul_n9))
  (let ((let211 (ff.mul let210 let82)))
  (let ((let212 (ff.mul let158 let82)))
  (let ((let213 mul_n46))
  (let ((let214 (ff.mul let213 let82)))
  (let ((let215 (ff.mul let142 let82)))
  (let ((let216 is_zero_n26))
  (let ((let217 (ff.mul let216 let108)))
  (let ((let218 mul_n32))
  (let ((let219 (ff.mul let218 let82)))
  (let ((let220 (ff.add let219 let217 let130 let215 let214 let84 let212 let154 let211 let209 let207)))
  (let ((let221 (ff.mul let132 let220)))
  (let ((let222 (= let221 let74)))
  (let ((let223 (ff.mul let132 let82)))
  (let ((let224 (ff.add let223 let71)))
  (let ((let225 is_zero_inv_n63))
  (let ((let226 (ff.mul let225 let220)))
  (let ((let227 (= let226 let224)))
  (let ((let228 (ff.add let83 let96)))
  (let ((let229 a_n0))
  (let ((let230 (ff.mul let229 let228)))
  (let ((let231 (= let230 let85)))
  (let ((let232 (ff.mul let87 let82)))
  (let ((let233 (ff.mul let80 let82)))
  (let ((let234 (ff.add let83 let96 let233 let232 let71)))
  (let ((let235 (ff.mul let121 let234)))
  (let ((let236 (= let235 let93)))
  (let ((let237 mul_n11))
  (let ((let238 (ff.mul let237 let82)))
  (let ((let239 (ff.add let229 let218 let83 let162 let238 let71)))
  (let ((let240 (ff.mul let121 let239)))
  (let ((let241 (= let240 let74)))
  (let ((let242 (ff.add let122 let71)))
  (let ((let243 is_zero_inv_n59))
  (let ((let244 (ff.mul let243 let239)))
  (let ((let245 (= let244 let242)))
  (let ((let246 (ff.mul let107 let207)))
  (let ((let247 (ff.mul let111 let88)))
  (let ((let248 (ff.mul let116 let88)))
  (let ((let249 (ff.mul let126 let207)))
  (let ((let250 (ff.mul let115 let207)))
  (let ((let251 (ff.add let118 let250 let130 let249 let248 let128 let114 let247 let246 let120 let108)))
  (let ((let252 (ff.mul let89 let251)))
  (let ((let253 (= let252 let74)))
  (let ((let254 (ff.add let131 let71)))
  (let ((let255 is_zero_inv_n57))
  (let ((let256 (ff.mul let255 let251)))
  (let ((let257 (= let256 let254)))
  (let ((let258 (ff.add let182 let185 let71)))
  (let ((let259 (ff.mul let216 let82)))
  (let ((let260 (ff.add let213 let259 let71)))
  (let ((let261 (ff.mul let260 let258)))
  (let ((let262 (= let261 let130)))
  (let ((let263 (ff.add let143 let215 let185 let71)))
  (let ((let264 (ff.mul let263 let113)))
  (let ((let265 (= let264 let119)))
  (let ((let266 (ff.mul let159 let82)))
  (let ((let267 (ff.mul let164 let108)))
  (let ((let268 (ff.add let267 let266)))
  (let ((let269 (ff.add let107 let126 let115)))
  (let ((let270 (ff.mul let269 let268)))
  (let ((let271 (= let270 let113)))
  (let ((let272 mul_n24))
  (let ((let273 (ff.mul let272 let82)))
  (let ((let274 mul_n45))
  (let ((let275 (ff.mul let274 let108)))
  (let ((let276 (ff.add let275 let115 let117 let126 let215 let273 let112 let107 let154 let207)))
  (let ((let277 (ff.mul let128 let276)))
  (let ((let278 (= let277 let74)))
  (let ((let279 (ff.add let129 let71)))
  (let ((let280 is_zero_inv_n51))
  (let ((let281 (ff.mul let280 let276)))
  (let ((let282 (= let281 let279)))
  (let ((let283 (ff.add let248 let108)))
  (let ((let284 (ff.mul let283 let269)))
  (let ((let285 (= let284 let111)))
  (let ((let286 h_n5))
  (let ((let287 (ff.add let182 let286 let185)))
  (let ((let288 (ff.add let190 let71)))
  (let ((let289 (ff.mul let288 let287)))
  (let ((let290 (= let289 let126)))
  (let ((let291 (ff.mul let183 let82)))
  (let ((let292 (ff.add let291 let267 let266)))
  (let ((let293 (ff.mul let292 let80)))
  (let ((let294 (= let293 let189)))
  (let ((let295 (ff.add let185 let213 let259 let71)))
  (let ((let296 (ff.mul let125 let295)))
  (let ((let297 (= let296 let107)))
  (let ((let298 is_zero_n19))
  (let ((let299 (ff.mul let298 let82)))
  (let ((let300 (ff.add let216 let299)))
  (let ((let301 (ff.add let183 let188 let159 let71)))
  (let ((let302 (ff.mul let301 let300)))
  (let ((let303 (= let302 let213)))
  (let ((let304 (ff.mul let272 let298)))
  (let ((let305 (= let304 let274)))
  (let ((let306 mul_n43))
  (let ((let307 (ff.mul let306 let298)))
  (let ((let308 (= let307 let154)))
  (let ((let309 (ff.mul let118 let82)))
  (let ((let310 (ff.add let309 let71)))
  (let ((let311 (ff.add let84 let71)))
  (let ((let312 (ff.mul let311 let310)))
  (let ((let313 (= let312 let306)))
  (let ((let314 is_zero_n38))
  (let ((let315 mul_n28))
  (let ((let316 (ff.mul let315 let82)))
  (let ((let317 (ff.mul let125 let82)))
  (let ((let318 (ff.add let317 let219 let84 let273 let316 let314 let181 let163)))
  (let ((let319 (ff.mul let118 let318)))
  (let ((let320 (= let319 let74)))
  (let ((let321 is_zero_inv_n41))
  (let ((let322 (ff.mul let321 let318)))
  (let ((let323 (= let322 let310)))
  (let ((let324 is_zero_n17))
  (let ((let325 mul_n39))
  (let ((let326 (ff.mul let325 let324)))
  (let ((let327 (= let326 let125)))
  (let ((let328 (ff.mul let198 let82)))
  (let ((let329 (ff.add let328 let71)))
  (let ((let330 (ff.add let210 let158)))
  (let ((let331 (ff.mul let330 let329)))
  (let ((let332 (= let331 let325)))
  (let ((let333 (ff.mul let315 let108)))
  (let ((let334 (ff.mul let272 let108)))
  (let ((let335 (ff.add let334 let267 let156 let117 let333 let185 let266 let71)))
  (let ((let336 (ff.mul let314 let335)))
  (let ((let337 (= let336 let74)))
  (let ((let338 (ff.mul let314 let82)))
  (let ((let339 (ff.add let338 let71)))
  (let ((let340 is_zero_inv_n37))
  (let ((let341 (ff.mul let340 let335)))
  (let ((let342 (= let341 let339)))
  (let ((let343 (ff.mul let263 let208)))
  (let ((let344 (= let343 let116)))
  (let ((let345 c_n4))
  (let ((let346 (ff.mul let345 let82)))
  (let ((let347 (ff.add let346 let71)))
  (let ((let348 mul_n34))
  (let ((let349 (ff.mul let348 let347)))
  (let ((let350 (= let349 let208)))
  (let ((let351 (ff.mul let164 let82)))
  (let ((let352 (ff.add let351 let71)))
  (let ((let353 (ff.mul let352 let292)))
  (let ((let354 (= let353 let348)))
  (let ((let355 (ff.add let267 let259 let266)))
  (let ((let356 (ff.mul let228 let355)))
  (let ((let357 (= let356 let183)))
  (let ((let358 (ff.add let84 let267 let156 let185 let266)))
  (let ((let359 (ff.add let181 let71)))
  (let ((let360 (ff.mul let359 let358)))
  (let ((let361 (= let360 let218)))
  (let ((let362 (ff.mul let159 let108)))
  (let ((let363 (as ff52435875175126190479447740508185965837690552500527637822603658699938581184509 FF0)))
  (let ((let364 (ff.mul let164 let363)))
  (let ((let365 (ff.add let364 let362 let108)))
  (let ((let366 (ff.mul let365 let115)))
  (let ((let367 (= let366 let156)))
  (let ((let368 (ff.mul let267 let164)))
  (let ((let369 (= let368 let159)))
  (let ((let370 (ff.mul let345 let180)))
  (let ((let371 (= let370 let164)))
  (let ((let372 (ff.add let273 let328 let71)))
  (let ((let373 (ff.mul let272 let372)))
  (let ((let374 (= let373 let315)))
  (let ((let375 (ff.add let211 let212 let71)))
  (let ((let376 (ff.mul let216 let375)))
  (let ((let377 (= let376 let198)))
  (let ((let378 (ff.add let83 let286 let71)))
  (let ((let379 (ff.mul let216 let378)))
  (let ((let380 (= let379 let74)))
  (let ((let381 (ff.add let259 let71)))
  (let ((let382 is_zero_inv_n25))
  (let ((let383 (ff.mul let382 let378)))
  (let ((let384 (= let383 let381)))
  (let ((let385 (ff.mul let162 let324)))
  (let ((let386 (= let385 let272)))
  (let ((let387 (ff.mul let109 let88)))
  (let ((let388 (ff.mul let127 let88)))
  (let ((let389 (ff.add let115 let388 let142 let237 let144 let387 let80 let108)))
  (let ((let390 (ff.mul let162 let389)))
  (let ((let391 (= let390 let74)))
  (let ((let392 (ff.mul let162 let82)))
  (let ((let393 (ff.add let392 let71)))
  (let ((let394 is_zero_inv_n22))
  (let ((let395 (ff.mul let394 let389)))
  (let ((let396 (= let395 let393)))
  (let ((let397 (ff.mul let142 let108)))
  (let ((let398 (ff.mul let397 let115)))
  (let ((let399 (= let398 let143)))
  (let ((let400 (ff.mul let109 let82)))
  (let ((let401 (ff.add let83 let96 let400 let233 let232 let71)))
  (let ((let402 (ff.mul let87 let108)))
  (let ((let403 (ff.mul let80 let108)))
  (let ((let404 (ff.mul let96 let88)))
  (let ((let405 (ff.mul let83 let88)))
  (let ((let406 (ff.add let405 let404 let403 let402)))
  (let ((let407 (ff.mul let406 let401)))
  (let ((let408 (= let407 let127)))
  (let ((let409 (ff.mul let186 let108)))
  (let ((let410 (ff.add let409 let324 let181 let71)))
  (let ((let411 (ff.mul let298 let410)))
  (let ((let412 (= let411 let74)))
  (let ((let413 (ff.add let299 let71)))
  (let ((let414 is_zero_inv_n18))
  (let ((let415 (ff.mul let414 let410)))
  (let ((let416 (= let415 let413)))
  (let ((let417 (ff.add let96 let346 let232 let237 let83 let212 let400 let233 let207)))
  (let ((let418 (ff.mul let324 let417)))
  (let ((let419 (= let418 let74)))
  (let ((let420 (ff.mul let324 let82)))
  (let ((let421 (ff.add let420 let71)))
  (let ((let422 is_zero_inv_n16))
  (let ((let423 (ff.mul let422 let417)))
  (let ((let424 (= let423 let421)))
  (let ((let425 (ff.add let83 let96 let158 let233 let232)))
  (let ((let426 (ff.mul let228 let425)))
  (let ((let427 (= let426 let109)))
  (let ((let428 (ff.add let233 let71)))
  (let ((let429 (ff.mul let96 let108)))
  (let ((let430 (ff.mul let83 let108)))
  (let ((let431 (ff.add let430 let429)))
  (let ((let432 (ff.mul let431 let428)))
  (let ((let433 (= let432 let87)))
  (let ((let434 (ff.add let84 let142)))
  (let ((let435 (ff.mul let345 let434)))
  (let ((let436 (= let435 let96)))
  (let ((let437 (ff.mul let229 let82)))
  (let ((let438 (ff.add let437 let71)))
  (let ((let439 (ff.mul let438 let237)))
  (let ((let440 (= let439 let80)))
  (let ((let441 (ff.add let185 let71)))
  (let ((let442 (ff.mul let229 let441)))
  (let ((let443 (= let442 let237)))
  (let ((let444 (ff.mul let330 let286)))
  (let ((let445 (= let444 let186)))
  (let ((let446 (ff.add let212 let180)))
  (let ((let447 (ff.mul let286 let446)))
  (let ((let448 (= let447 let210)))
  (let ((let449 (and let448 let445 let443 let440 let436 let433 let427 let424 let419 let416 let412 let408 let399 let396 let391 let386 let384 let380 let377 let374 let371 let369 let367 let361 let357 let354 let350 let344 let342 let337 let332 let327 let323 let320 let313 let308 let305 let303 let297 let294 let290 let285 let282 let278 let271 let265 let262 let257 let253 let245 let241 let236 let231 let227 let222 let206 let201 let197 let193 let178 let175 let171 let168 let153 let148 let141 let136 let105 let100)))
  (let ((let450 (ite let0 let71 let74)))
  (let ((let451 (= let286 let450)))
  (let ((let452 (ite let5 let71 let74)))
  (let ((let453 (= let115 let452)))
  (let ((let454 (ite let6 let71 let74)))
  (let ((let455 (= let229 let454)))
  (let ((let456 (ite let10 let71 let74)))
  (let ((let457 (= let142 let456)))
  (let ((let458 (ite let2 let71 let74)))
  (let ((let459 (= let180 let458)))
  (let ((let460 (ite let9 let71 let74)))
  (let ((let461 (= let83 let460)))
  (let ((let462 (ite let11 let71 let74)))
  (let ((let463 (= let345 let462)))
  (let ((let464 (ite let1 let71 let74)))
  (let ((let465 (= let158 let464)))
  (let ((let466 (and let465 let463 let461 let459 let457 let455 let453 let451)))
  (let ((let467 (and let466 let449)))
  (let ((let468 (=> let467 let77)))
  (let ((let469 (not let468)))
  let469
))))))))))))))))))))))))))))))))))))))))))))))))))))))))))))))))))))))))))))))))))))))))))))))))))))))))))))))))))))))))))))))))))))))))))))))))))))))))))))))))))))))))))))))))))))))))))))))))))))))))))))))))))))))))))))))))))))))))))))))))))))))))))))))))))))))))))))))))))))))))))))))))))))))))))))))))))))))))))))))))))))))))))))))))))))))))))))))))))))))))))))))))))))))))))))))))))))))))))))))))))))))))))))))))))))))))))))))))))))))))))))))))))))))))))))))))))))))
)
(check-sat)
